local_stuff/sygus_stuff/sygus_inv_oai/sygus_cvc5/cvc_output/103_conf1.out
STDOUT:
(
(define-fun inv-f ((conf_0 Int) (x Int) (conf_0_0 Int) (conf_0_1 Int) (conf_0_2 Int) (x_0 Int) (x_1 Int) (x_2 Int) (x_3 Int)) Bool (or (not (= conf_0 conf_0_1)) (not (= x x_2)) (not (>= x_2 100)) (= x_2 100)))
)
